Solver command line: ['C:\\Program Files\\IBM\\ILOG\\CPLEX_Studio2211\\cplex\\bin\\x64_win64\\cplex.exe']


Welcome to IBM(R) ILOG(R) CPLEX(R) Interactive Optimizer 22.1.1.0
  with Simplex, Mixed Integer & Barrier Optimizers
5725-A06 5725-A29 5724-Y48 5724-Y49 5724-Y54 5724-Y55 5655-Y21
Copyright IBM Corp. 1988, 2022.  All Rights Reserved.

Type 'help' for a list of available commands.
Type 'help' followed by a command name for more
information on commands.

CPLEX> Logfile 'cplex.log' closed.
Logfile 'C:\Users\wangy\Documents\GitHub\re_optimization\result_site_specific\tmp8e7v615o.cplex.log' open.
CPLEX> Problem 'C:\Users\wangy\Documents\GitHub\re_optimization\result_site_specific\tmp_1uvmnp8.pyomo.lp' read.
Read time = 0.28 sec. (9.13 ticks)
CPLEX> Problem name         : C:\Users\wangy\Documents\GitHub\re_optimization\result_site_specific\tmp_1uvmnp8.pyomo.lp
Objective sense      : Minimize
Variables            :   65769  [Nneg: 35068,  Free: 8792,  Binary: 9,
                                 Other: 21900]
Objective nonzeros   :      17
Linear constraints   :   87665  [Less: 46741,  Greater: 5,  Equal: 40919]
  Nonzeros           :  225091
  RHS nonzeros       :    3745

Variables            : Min LB: 0.000000         Max UB: 1.000000       
Objective nonzeros   : Min   : 1.000000         Max   : 1.000000       
Linear constraints   :
  Nonzeros           : Min   : 0.001316751      Max   : 100000.0       
  RHS nonzeros       : Min   : 0.2500000        Max   : 100000.0       
CPLEX> Version identifier: 22.1.1.0 | 2022-11-27 | 9160aff4d
Tried aggregator 3 times.
MIP Presolve eliminated 52744 rows and 32302 columns.
Aggregator did 10258 substitutions.
Reduced MIP has 24663 rows, 23209 columns, and 73846 nonzeros.
Reduced MIP has 5 binaries, 0 generals, 0 SOSs, and 0 indicators.
Presolve time = 0.20 sec. (225.79 ticks)
Found incumbent of value 351444.183013 after 0.30 sec. (323.14 ticks)
Probing time = 0.00 sec. (1.39 ticks)
Tried aggregator 1 time.
Detecting symmetries...
Reduced MIP has 24663 rows, 23209 columns, and 73846 nonzeros.
Reduced MIP has 5 binaries, 0 generals, 0 SOSs, and 0 indicators.
Presolve time = 0.06 sec. (47.10 ticks)
Probing time = 0.00 sec. (1.28 ticks)
MIP emphasis: balance optimality and feasibility.
MIP search method: dynamic search.
Parallel mode: deterministic, using up to 16 threads.
Root relaxation solution time = 1.24 sec. (845.06 ticks)

        Nodes                                         Cuts/
   Node  Left     Objective  IInf  Best Integer    Best Bound    ItCnt     Gap

*     0+    0                       351444.1830   -17425.3496           104.96%
      0     0    14213.7761     1   351444.1830    14213.7761       62   95.96%
*     0+    0                        15818.3683    14213.7761            10.14%
*     0+    0                        15030.9846    14213.7761             5.44%
      0     0        cutoff          15030.9846                    739    0.00%
Elapsed time = 1.91 sec. (1733.91 ticks, tree = 0.01 MB, solutions = 3)

Root node processing (before b&c):
  Real time             =    1.92 sec. (1737.10 ticks)
Parallel b&c, 16 threads:
  Real time             =    0.00 sec. (0.00 ticks)
  Sync time (average)   =    0.00 sec.
  Wait time (average)   =    0.00 sec.
                          ------------
Total (root+branch&cut) =    1.92 sec. (1737.10 ticks)

Solution pool: 3 solutions saved.

MIP - Integer optimal solution:  Objective =  1.5030984601e+04
Solution time =    1.94 sec.  Iterations = 739  Nodes = 0
Deterministic time = 1737.29 ticks  (896.43 ticks/sec)

CPLEX> Incumbent solution written to file 'C:\Users\wangy\Documents\GitHub\re_optimization\result_site_specific\tmpknylzpxi.cplex.sol'.
CPLEX> 
